543 5
10 10 10 10 10 

0 0 0 0 0 0 5 2 14 26 38 50 
0 0 0 0 0 0 3 3 9 12 
7 0 0 0 0 2 2 8 4 
1 0 0 0 0 10 2 7 5 
7 0 0 0 0 5 2 10 6 
5 0 0 0 0 10 1 11 
1 0 0 0 0 8 1 10 
3 0 0 0 0 9 1 10 
10 0 0 0 0 10 1 11 
9 0 0 0 0 8 2 13 537 
4 0 0 0 0 7 1 13 
3 0 0 0 0 6 1 13 
0 0 0 0 0 0 1 62 
0 0 0 0 0 0 3 15 17 24 
2 0 3 0 0 0 2 20 16 
9 0 6 0 0 0 3 23 22 18 
10 0 9 0 0 0 2 22 19 
3 0 8 0 0 0 2 19 303 
4 0 10 0 0 0 1 21 
2 0 8 0 0 0 1 22 
2 0 9 0 0 0 1 25 
8 0 10 0 0 0 1 25 
8 0 6 0 0 0 1 25 
9 0 6 0 0 0 1 25 
0 0 0 0 0 0 1 62 
0 0 0 0 0 0 4 27 31 32 36 
3 0 0 0 6 0 2 34 28 
10 0 0 0 6 0 2 35 29 
9 0 0 0 5 0 1 30 
10 0 0 0 6 0 1 33 
1 0 0 0 10 0 1 34 
6 0 0 0 4 0 1 33 
5 0 0 0 8 0 1 37 
9 0 0 0 10 0 1 37 
9 0 0 0 10 0 2 37 534 
3 0 0 0 10 0 1 37 
0 0 0 0 0 0 1 62 
0 0 0 0 0 0 4 39 41 47 48 
3 0 0 0 0 3 2 45 40 
2 0 0 0 0 6 2 46 42 
4 0 0 0 0 8 2 45 43 
3 0 0 0 0 10 1 43 
6 0 0 0 0 6 1 44 
8 0 0 0 0 10 1 49 
9 0 0 0 0 8 2 49 499 
9 0 0 0 0 10 1 49 
9 0 0 0 0 8 1 49 
6 0 0 0 0 6 1 49 
0 0 0 0 0 0 1 62 
0 0 0 0 0 0 2 51 53 
10 3 0 0 0 0 2 60 52 
6 6 0 0 0 0 3 59 56 54 
2 9 0 0 0 0 2 58 54 
5 6 0 0 0 0 1 55 
2 10 0 0 0 0 1 57 
4 5 0 0 0 0 2 58 79 
9 9 0 0 0 0 1 61 
3 10 0 0 0 0 1 61 
10 7 0 0 0 0 1 61 
7 10 0 0 0 0 1 61 
0 0 0 0 0 0 1 62 
0 0 0 0 0 0 5 63 105 147 189 231 
0 0 0 0 0 0 2 64 66 
8 0 8 5 4 3 1 65 
8 0 7 5 8 5 2 68 67 
4 0 10 6 10 8 1 67 
2 0 10 8 6 7 4 81 73 71 70 
1 0 5 9 10 10 3 73 71 69 
8 0 10 10 10 8 1 70 
2 0 5 7 10 5 3 77 76 72 
6 0 4 9 5 7 3 84 76 75 
9 0 5 9 8 8 2 84 74 
8 0 6 6 9 9 2 76 75 
3 0 9 8 10 10 1 75 
6 0 10 9 7 6 3 87 86 78 
8 0 6 8 7 4 3 87 86 78 
7 0 5 9 7 8 3 87 86 78 
9 0 10 6 7 5 2 82 79 
3 0 7 5 9 10 1 80 
8 0 10 7 8 10 4 99 91 90 83 
3 0 7 6 9 10 4 94 90 89 84 
5 0 7 8 8 4 2 91 83 
5 0 9 10 4 10 1 85 
5 0 6 8 10 10 4 99 97 92 87 
5 0 7 9 8 7 3 94 93 88 
6 0 4 7 9 10 3 99 93 88 
2 0 6 10 7 7 2 96 91 
1 0 10 10 10 9 2 89 151 
10 0 8 10 6 6 2 97 92 
3 0 8 4 8 9 2 95 92 
7 0 7 6 10 10 1 93 
6 0 10 5 8 6 2 103 96 
7 0 6 6 5 5 2 102 95 
5 0 10 5 8 8 2 102 95 
6 0 5 6 9 10 2 103 98 
5 0 10 10 9 8 2 102 98 
8 0 7 10 6 6 2 103 102 
9 0 10 8 6 7 1 100 
6 0 10 7 7 8 1 100 
9 0 6 8 5 5 1 101 
6 0 6 7 4 10 1 104 
2 0 6 4 2 7 1 104 
3 0 8 10 7 5 1 104 
0 0 0 0 0 0 1 543 
0 0 0 0 0 0 2 106 109 
2 3 0 8 6 4 1 107 
4 7 0 8 3 8 3 139 111 108 
4 8 0 3 9 9 4 127 117 115 110 
6 7 0 9 6 6 3 115 113 440 
5 7 0 2 9 6 1 112 
10 10 0 6 10 8 4 132 127 116 114 
5 7 0 5 5 8 2 116 113 
3 5 0 8 7 5 2 132 114 
9 10 0 6 9 10 3 137 131 118 
6 9 0 10 7 9 2 137 116 
10 10 0 6 7 7 3 131 122 119 
7 10 0 10 9 6 4 137 131 122 120 
5 6 0 4 8 10 2 122 119 
3 7 0 7 10 3 2 138 120 
9 10 0 7 7 7 1 121 
6 5 0 7 7 9 5 145 144 136 130 123 
8 9 0 10 9 10 3 136 130 123 
6 5 0 10 6 7 2 143 124 
7 6 0 10 6 10 2 134 125 
1 6 0 10 10 6 1 126 
5 9 0 10 8 8 2 142 128 
1 6 0 3 6 7 2 137 133 
1 7 0 6 7 7 1 129 
1 5 0 7 6 7 2 141 133 
5 5 0 9 8 6 2 142 134 
6 6 0 10 6 8 2 142 133 
4 7 0 7 4 4 2 140 137 
3 8 0 5 5 10 1 135 
9 10 0 7 10 10 1 135 
1 6 0 6 8 10 1 140 
1 10 0 5 10 10 1 142 
8 6 0 10 10 5 1 141 
6 6 0 8 9 5 1 140 
6 10 0 8 9 7 1 140 
5 10 0 7 6 10 1 146 
7 10 0 10 9 6 1 146 
3 10 0 8 7 7 1 146 
6 7 0 10 6 10 1 146 
7 9 0 8 9 9 1 146 
2 6 0 10 7 6 1 146 
0 0 0 0 0 0 1 543 
0 0 0 0 0 0 2 148 152 
6 5 5 0 9 6 1 149 
2 9 9 0 8 5 2 151 150 
4 9 10 0 3 8 3 158 156 153 
1 5 8 0 10 7 2 168 154 
8 3 4 0 10 10 2 156 154 
9 8 6 0 8 7 1 154 
6 9 9 0 7 7 3 161 160 155 
8 7 10 0 9 10 3 170 157 276 
6 10 4 0 7 7 2 170 160 
8 10 10 0 10 9 1 159 
2 10 9 0 10 5 1 159 
10 5 7 0 6 6 3 172 169 162 
6 7 10 0 8 10 3 172 169 162 
6 6 5 0 10 7 5 177 172 169 165 164 
7 4 8 0 7 6 3 177 165 163 
6 10 10 0 10 8 1 164 
7 10 9 0 8 10 3 187 175 166 
10 9 6 0 5 4 2 175 166 
6 5 10 0 9 8 2 182 167 
7 10 4 0 10 6 3 186 180 171 
9 7 10 0 6 6 2 176 172 
5 8 8 0 7 7 2 187 173 
6 7 8 0 9 10 2 179 172 
7 7 5 0 7 6 1 173 
3 8 10 0 7 10 2 185 175 
10 10 6 0 8 10 1 174 
6 6 8 0 3 9 2 184 176 
5 8 7 0 4 3 2 180 178 
1 10 6 0 7 5 2 185 179 
6 8 5 0 9 3 2 185 179 
8 9 7 0 8 10 2 184 181 
6 8 8 0 3 10 1 181 
8 6 7 0 6 7 1 181 
3 4 4 0 10 8 1 183 
6 10 8 0 10 10 1 184 
2 10 10 0 8 8 1 188 
3 4 4 0 7 7 1 188 
10 5 7 0 5 9 1 188 
7 9 9 0 7 10 1 188 
2 5 10 0 5 6 1 188 
0 0 0 0 0 0 1 543 
0 0 0 0 0 0 2 190 192 
5 4 4 5 0 4 1 191 
2 7 8 5 0 10 2 194 193 
10 10 10 9 0 7 1 193 
10 6 5 8 0 7 4 205 199 197 196 
8 5 9 5 0 8 3 199 197 195 
4 6 7 10 0 10 1 196 
1 5 7 5 0 8 3 203 201 198 
7 7 5 10 0 6 3 209 203 202 
9 10 8 2 0 10 2 209 200 
9 10 6 7 0 6 2 203 202 
8 10 6 7 0 7 1 202 
6 10 6 8 0 9 1 202 
1 8 6 9 0 3 2 211 204 
1 6 8 7 0 10 2 211 204 
4 6 9 4 0 5 3 215 208 206 
7 5 8 10 0 7 3 213 212 209 
8 10 8 7 0 8 1 207 
3 7 7 6 0 7 4 222 217 213 210 
4 3 5 4 0 8 2 217 210 
9 2 10 4 0 10 3 222 216 215 
4 9 6 10 0 6 1 212 
2 10 8 8 0 10 3 222 220 214 
2 10 10 7 0 6 2 218 214 
3 10 10 10 0 10 3 224 220 219 
1 5 7 7 0 10 2 221 216 
2 10 6 10 0 10 2 219 217 
9 7 10 8 0 8 2 224 219 
4 6 10 7 0 10 1 220 
8 10 8 7 0 7 1 220 
8 5 10 10 0 6 2 229 223 
2 4 10 6 0 5 1 221 
6 7 8 10 0 7 3 229 228 225 
5 8 10 8 0 8 3 229 228 226 
3 10 5 8 0 7 2 228 225 
1 10 9 9 0 6 2 229 228 
4 7 6 10 0 8 1 226 
4 6 9 9 0 6 1 227 
6 10 7 9 0 10 1 230 
4 9 5 10 0 3 2 230 492 
8 10 4 5 0 7 1 230 
0 0 0 0 0 0 1 543 
0 0 0 0 0 0 4 232 233 235 236 
5 0 0 5 0 0 1 234 
8 0 0 4 0 0 1 234 
8 0 0 7 0 0 3 239 238 237 
6 0 0 8 0 0 2 239 238 
3 0 0 10 0 0 1 237 
8 0 0 10 0 0 1 240 
2 0 0 5 0 0 2 240 393 
10 0 0 10 0 0 1 240 
6 0 0 7 0 0 1 241 
7 0 0 9 0 0 1 242 
0 0 0 0 0 0 5 243 275 307 319 351 
0 0 0 0 0 0 3 244 245 273 
1 0 0 3 2 6 2 272 246 
10 0 0 7 4 7 3 272 257 247 
10 0 0 7 10 4 2 257 247 
3 0 0 9 6 7 1 248 
6 0 0 5 6 7 3 271 270 249 
1 0 0 10 10 6 1 250 
5 0 0 10 6 6 2 269 251 
8 0 0 10 10 8 3 268 267 252 
2 0 0 10 6 10 1 253 
2 0 0 6 10 7 1 254 
9 0 0 7 10 10 3 266 255 474 
5 0 0 6 7 10 1 256 
5 0 0 7 10 8 3 264 259 258 
1 0 0 8 10 9 4 266 262 261 259 
8 0 0 10 10 10 3 265 263 260 
10 0 0 10 10 7 1 263 
3 0 0 4 7 7 1 262 
3 0 0 10 6 7 1 264 
7 0 0 8 9 10 1 274 
4 0 0 7 9 5 1 274 
3 0 0 9 5 10 1 274 
7 0 0 10 3 4 1 274 
9 0 0 4 8 9 1 274 
9 0 0 3 5 5 1 274 
1 0 0 8 8 8 1 274 
7 0 0 8 6 7 1 274 
1 0 0 9 10 10 1 274 
3 0 0 5 6 1 1 274 
6 0 0 8 8 10 1 274 
5 0 0 7 8 10 1 274 
0 0 0 0 0 0 1 543 
0 0 0 0 0 0 3 276 277 282 
9 4 7 0 0 6 2 287 278 
10 7 6 0 0 10 2 287 278 
6 5 2 0 0 10 2 283 279 
8 3 6 0 0 7 2 285 280 
7 6 9 0 0 7 1 281 
9 6 5 0 0 7 3 291 290 284 
1 6 8 0 0 10 2 287 286 
2 9 8 0 0 4 1 285 
6 9 10 0 0 5 1 286 
4 8 7 0 0 10 2 286 392 
2 4 9 0 0 5 3 297 294 288 
6 10 5 0 0 7 3 297 290 288 
8 10 4 0 0 9 1 289 
2 6 8 0 0 8 2 298 292 
3 10 4 0 0 7 1 292 
2 3 10 0 0 7 1 292 
9 8 9 0 0 4 1 293 
2 10 10 0 0 10 2 305 295 
1 6 8 0 0 8 2 305 295 
10 9 8 0 0 9 2 300 296 
10 10 7 0 0 10 4 304 303 301 299 
5 10 10 0 0 9 4 305 303 302 301 
9 10 10 0 0 8 2 301 299 
10 6 5 0 0 10 1 302 
5 6 7 0 0 5 1 301 
2 10 10 0 0 3 1 306 
5 10 9 0 0 10 1 306 
10 9 9 0 0 8 1 306 
5 6 8 0 0 7 1 306 
9 9 7 0 0 5 1 306 
0 0 0 0 0 0 1 543 
0 0 0 0 0 0 1 308 
7 8 0 0 0 0 2 310 309 
1 7 0 0 0 0 3 314 312 311 
9 7 0 0 0 0 4 317 316 314 313 
1 6 0 0 0 0 3 317 316 313 
10 7 0 0 0 0 1 313 
2 10 0 0 0 0 1 315 
10 9 0 0 0 0 1 315 
2 6 0 0 0 0 1 318 
4 5 0 0 0 0 1 318 
6 10 0 0 0 0 1 318 
0 0 0 0 0 0 5 383 405 427 439 461 
0 0 0 0 0 0 3 320 321 330 
3 3 0 0 8 1 2 334 322 
3 6 0 0 6 10 2 334 322 
6 8 0 0 10 5 2 326 323 
6 10 0 0 9 10 2 329 324 
2 5 0 0 6 5 2 339 325 
1 6 0 0 3 7 2 337 327 
8 10 0 0 10 10 2 329 328 
1 7 0 0 10 5 1 328 
3 10 0 0 7 7 3 344 336 331 
6 5 0 0 9 7 2 344 331 
5 9 0 0 5 4 4 341 339 336 335 
3 6 0 0 6 7 2 341 332 
6 9 0 0 6 7 1 333 
9 10 0 0 7 9 1 335 
4 8 0 0 8 8 1 335 
3 9 0 0 5 6 2 349 338 
2 8 0 0 5 7 2 349 338 
6 9 0 0 7 7 2 349 338 
6 7 0 0 10 10 3 348 343 340 
9 6 0 0 8 6 3 348 343 340 
10 10 0 0 8 10 3 347 346 342 
5 6 0 0 10 5 1 342 
4 10 0 0 10 7 1 345 
7 5 0 0 6 10 1 346 
6 4 0 0 7 10 1 349 
5 5 0 0 7 8 1 350 
9 10 0 0 6 10 1 350 
3 9 0 0 10 7 1 350 
8 7 0 0 8 10 1 350 
1 8 0 0 8 10 1 350 
0 0 0 0 0 0 1 543 
0 0 0 0 0 0 3 352 354 381 
10 6 4 3 0 0 2 380 353 
9 7 4 5 0 0 2 378 355 
8 4 6 10 0 0 2 379 355 
1 10 9 6 0 0 1 356 
4 10 9 10 0 0 3 377 376 357 
1 8 10 6 0 0 1 358 
5 5 6 8 0 0 3 375 374 359 
6 9 9 7 0 0 2 373 360 
2 7 7 10 0 0 1 361 
2 10 8 9 0 0 1 362 
10 9 10 7 0 0 2 372 363 
9 7 6 6 0 0 1 364 
7 9 8 7 0 0 5 371 370 369 368 365 
10 5 5 9 0 0 1 366 
10 5 10 5 0 0 1 367 
3 5 7 8 0 0 1 382 
9 9 8 3 0 0 1 382 
7 7 10 10 0 0 1 382 
5 8 7 5 0 0 1 382 
2 10 8 7 0 0 1 382 
7 8 7 6 0 0 1 382 
7 10 7 10 0 0 1 382 
10 5 8 8 0 0 1 382 
9 6 9 10 0 0 1 382 
3 8 5 6 0 0 1 382 
4 10 10 10 0 0 1 382 
9 9 6 7 0 0 1 382 
6 9 7 7 0 0 1 382 
1 7 6 10 0 0 1 382 
4 3 9 10 0 0 1 382 
0 0 0 0 0 0 1 543 
0 0 0 0 0 0 6 384 399 400 401 402 403 
1 5 0 0 4 0 3 398 397 385 
9 8 0 0 5 0 2 396 386 
10 8 0 0 9 0 2 395 387 
1 8 0 0 10 0 1 388 
4 8 0 0 9 0 2 394 389 
8 4 0 0 7 0 1 390 
6 4 0 0 6 0 1 391 
3 10 0 0 6 0 1 392 
1 7 0 0 4 0 1 393 
10 10 0 0 7 0 1 404 
4 6 0 0 9 0 1 404 
2 8 0 0 9 0 1 404 
3 6 0 0 10 0 1 404 
6 10 0 0 5 0 1 404 
1 6 0 0 10 0 1 404 
5 8 0 0 10 0 1 404 
4 9 0 0 10 0 1 404 
1 10 0 0 7 0 1 404 
7 6 0 0 7 0 1 404 
1 9 0 0 6 0 1 404 
0 0 0 0 0 0 1 543 
0 0 0 0 0 0 4 406 423 424 425 
4 0 3 0 0 5 3 422 421 407 
4 0 8 0 0 9 2 420 408 
4 0 8 0 0 7 3 419 418 409 
1 0 7 0 0 3 3 417 416 410 
1 0 10 0 0 7 1 411 
4 0 10 0 0 7 1 412 
9 0 8 0 0 9 1 413 
7 0 8 0 0 6 1 414 
7 0 7 0 0 8 1 415 
10 0 9 0 0 8 1 426 
9 0 10 0 0 8 1 426 
2 0 6 0 0 7 1 426 
6 0 7 0 0 6 1 426 
2 0 6 0 0 9 1 426 
3 0 4 0 0 4 1 426 
7 0 5 0 0 10 1 426 
8 0 9 0 0 10 1 426 
4 0 6 0 0 10 1 426 
8 0 9 0 0 10 1 426 
8 0 10 0 0 7 1 426 
0 0 0 0 0 0 1 543 
0 0 0 0 0 0 2 428 429 
7 0 0 0 3 0 3 432 431 430 
2 0 0 0 7 0 2 433 432 
10 0 0 0 6 0 2 437 433 
8 0 0 0 9 0 2 437 433 
3 0 0 0 8 0 2 437 434 
1 0 0 0 10 0 1 434 
8 0 0 0 8 0 2 436 435 
6 0 0 0 10 0 1 438 
4 0 0 0 10 0 1 438 
2 0 0 0 4 0 1 438 
0 0 0 0 0 0 5 483 495 507 519 531 
0 0 0 0 0 0 1 440 
8 0 4 0 0 1 2 452 441 
1 0 6 0 0 7 2 444 442 
3 0 4 0 0 10 1 443 
2 0 6 0 0 4 2 454 445 
9 0 10 0 0 10 1 445 
4 0 10 0 0 10 4 451 449 448 446 
5 0 5 0 0 9 1 447 
5 0 10 0 0 7 2 458 450 
6 0 9 0 0 8 2 458 450 
5 0 7 0 0 10 1 450 
4 0 6 0 0 10 2 457 453 
4 0 8 0 0 9 2 457 453 
1 0 10 0 0 8 3 457 456 455 
10 0 8 0 0 8 2 456 455 
8 0 6 0 0 4 1 459 
1 0 10 0 0 5 1 460 
8 0 4 0 0 6 1 460 
9 0 7 0 0 8 1 460 
8 0 10 0 0 8 1 460 
5 0 10 0 0 8 1 460 
0 0 0 0 0 0 1 543 
0 0 0 0 0 0 2 462 481 
9 0 0 0 4 3 1 463 
2 0 0 0 7 6 2 466 464 
9 0 0 0 4 9 1 465 
1 0 0 0 9 10 2 475 467 
6 0 0 0 10 10 1 467 
1 0 0 0 7 5 4 473 472 470 468 
6 0 0 0 10 6 1 469 
9 0 0 0 9 6 2 479 471 
7 0 0 0 9 6 2 479 471 
10 0 0 0 3 5 3 478 477 474 
8 0 0 0 8 10 3 478 477 474 
7 0 0 0 8 7 2 477 474 
6 0 0 0 10 10 1 476 
7 0 0 0 9 7 1 480 
8 0 0 0 10 5 1 482 
10 0 0 0 5 10 1 482 
5 0 0 0 8 7 1 482 
10 0 0 0 6 9 1 482 
6 0 0 0 5 10 1 482 
9 0 0 0 9 9 1 482 
0 0 0 0 0 0 1 543 
0 0 0 0 0 0 6 484 485 486 489 492 493 
2 2 0 0 0 0 1 487 
5 10 0 0 0 0 1 487 
4 5 0 0 0 0 1 487 
6 5 0 0 0 0 1 488 
4 7 0 0 0 0 1 490 
3 10 0 0 0 0 1 490 
2 10 0 0 0 0 1 491 
1 10 0 0 0 0 1 494 
5 10 0 0 0 0 1 494 
10 6 0 0 0 0 1 494 
0 0 0 0 0 0 1 543 
0 0 0 0 0 0 4 496 497 499 502 
4 2 0 0 0 0 1 498 
5 6 0 0 0 0 1 498 
6 8 0 0 0 0 3 505 504 500 
4 10 0 0 0 0 3 505 504 500 
3 6 0 0 0 0 1 501 
7 9 0 0 0 0 1 503 
6 9 0 0 0 0 1 504 
3 10 0 0 0 0 1 506 
2 10 0 0 0 0 1 506 
4 5 0 0 0 0 1 506 
0 0 0 0 0 0 1 543 
0 0 0 0 0 0 5 508 511 513 516 517 
6 0 0 5 0 0 2 515 509 
4 0 0 8 0 0 1 510 
8 0 0 9 0 0 1 512 
3 0 0 6 0 0 1 512 
4 0 0 10 0 0 1 514 
5 0 0 4 0 0 1 515 
7 0 0 5 0 0 1 518 
10 0 0 8 0 0 1 518 
10 0 0 10 0 0 1 518 
9 0 0 10 0 0 1 518 
0 0 0 0 0 0 1 543 
0 0 0 0 0 0 2 520 522 
10 1 0 0 0 0 1 521 
3 8 0 0 0 0 2 529 523 
8 7 0 0 0 0 2 525 524 
6 10 0 0 0 0 3 528 527 525 
7 10 0 0 0 0 3 528 527 526 
1 7 0 0 0 0 1 526 
10 10 0 0 0 0 1 530 
1 6 0 0 0 0 1 530 
2 10 0 0 0 0 1 530 
4 6 0 0 0 0 1 530 
0 0 0 0 0 0 1 543 
0 0 0 0 0 0 4 532 539 540 541 
1 0 0 0 2 0 1 533 
7 0 0 0 5 0 3 538 537 534 
9 0 0 0 10 0 1 535 
7 0 0 0 8 0 1 536 
6 0 0 0 10 0 1 542 
2 0 0 0 10 0 1 542 
9 0 0 0 5 0 1 542 
10 0 0 0 9 0 1 542 
9 0 0 0 6 0 1 542 
1 0 0 0 10 0 1 542 
0 0 0 0 0 0 1 543 
0 0 0 0 0 0 0 
